36
acid-lactam search hypothesis
C 0.12785635134947285 5.616790949677028 -0.17164782683826446
O -0.7242286012943836 4.518046710573001 0.12632690362582044
C -0.12788865352047346 3.297266502360125 0.28990426790757096
C 1.2350185975709789 3.0389567709301324 0.2325035893155446
C 1.7309671626279024 1.740310594798014 0.41175019387212775
C 0.826573927576195 0.6818954957395157 0.6348510395525864
C -0.5420277216094855 0.9332119827364845 0.7525245657377295
C -1.0152787625948057 2.2499741830102553 0.556537623751533
C -1.1831205164156564 -0.291583149332099 1.0967884068464413
C -2.6526755846060457 -0.47450274050150565 1.3425282689399554
C -3.405098266596108 -0.928928831081242 0.10823979380513822
O -2.93007284782552 -1.1692434636524163 -0.9934081391604994
O -4.7357853150830636 -1.0371062782781926 0.40922432464903186
C -5.529811218988496 -1.567934433071341 -0.65440954785548
C -5.325379337492854 -3.061358116397699 -0.841188722401481
O -4.674964071026578 -3.81077014267993 -0.12990529267536266
O -5.9917225721347425 -3.5429146176388944 -1.9115512494463476
C -0.19595786995500766 -1.2634446556087586 1.1767336314633365
C -0.3425814443930074 -2.717776295606327 1.493201840383697
N 1.027044187450719 -0.6926191905114037 0.8148800303935043
C 2.254655598005619 -1.390163986541752 0.6628537778032886
O 2.418291405379898 -2.424700523961502 1.3087275840970345
C 3.354325009456687 -0.9830851055672664 -0.24331019616979124
C 4.67908556943879 -1.115361852951531 0.19112275292573627
C 5.7291829623425 -0.7609285093746614 -0.6590191702233165
C 5.452843639063234 -0.29223422042795827 -1.9434461689960183
Cl 6.746694539652749 0.1468393096073456 -2.9882966783557654
C 4.135546585610092 -0.1827587766481008 -2.3900504197825483
C 3.081898896928724 -0.5366329390414396 -1.5432074684035022
O -5.841631349566577 -6.267117070807107 -2.4451267230598663
C -5.188531371560938 -7.024413821443435 -1.7322176706814072
C -4.992284198804889 -8.48725554449852 -2.0703219900139684
C -4.729751239189577 -9.36230784511871 -0.8525982471101986
C -3.645292100148657 -8.74402873805507 0.019052032079254433
C -4.090223683907468 -7.360952649102964 0.4626065024446462
N -4.512542563016599 -6.5374808272954 -0.6467972186339778
